15 8 2.0
8 1 1 6 2 1 6 7 9 2 6 7 3 1 2 4 2 7 5 3 1 8 3 9 8 9 3 2 3 4 8 3 2 2 5 5 6 7 2 6 1 4 7 
7 1 6 1 2 6 1 4 7 1 1 6 2 6 7 3 1 3 2 3 4 8 3 2 1 6 2 1 7 2 
6 1 6 1 3 2 3 4 8 3 2 3 3 2 7 1 4 4 2 4 2 7 5 2 1 7 3 7 2 4 4 3 1 
5 1 7 2 1 1 6 2 1 6 7 9 2 6 7 3 1 2 4 5 5 7 
7 1 7 2 2 1 6 7 9 2 4 4 3 1 3 1 8 3 9 8 9 2 1 7 3 7 3 2 3 4 8 3 2 2 4 5 5 7 
9 1 6 2 2 4 4 3 1 3 3 2 7 1 4 4 2 6 1 4 7 2 4 5 5 7 3 1 8 3 9 8 9 2 1 7 3 7 1 6 1 2 1 6 7 9 
5 2 5 5 6 7 2 1 7 3 7 2 6 1 4 7 1 6 2 2 6 7 3 1 
6 2 4 5 5 7 2 5 5 6 7 3 2 3 4 8 3 2 1 6 2 1 6 1 2 1 6 7 9 
9 1 1 6 2 1 6 7 9 2 4 4 3 1 3 1 8 3 9 8 9 2 4 2 7 5 2 6 1 4 7 1 7 2 2 1 7 3 7 3 2 3 4 8 3 2 
5 2 5 5 6 7 1 1 6 1 7 2 2 4 5 5 7 2 1 6 7 9 
4 3 1 8 3 9 8 9 1 1 6 3 2 3 4 8 3 2 2 4 2 7 5 
6 2 4 2 7 5 1 6 1 1 1 6 2 1 7 3 7 3 1 8 3 9 8 9 1 7 2 
4 1 6 2 2 6 7 3 1 2 6 1 4 7 2 5 5 6 7 
3 2 5 5 6 7 1 6 1 2 4 2 7 5 
6 2 4 5 5 7 1 7 2 3 1 8 3 9 8 9 3 2 3 4 8 3 2 3 3 2 7 1 4 4 1 1 6 
4 17 4 24 1 36 48 2 64 76 9 88 108 
2 1 1 3 2 4 8 
8 3 1 6 1 8 13 1 16 19 2 22 27 1 30 33 1 36 41 1 44 47 1 49 56 
4 4 4 15 7 24 33 2 42 53 2 63 70 
2 3 6 12 1 21 33 
2 5 6 23 1 36 51 
3 6 5 16 2 28 35 4 49 56 
2 3 2 9 1 14 19 
